fenzi3                                
1.0
       14.1480998993         0.0000000000         0.0000000000
       -7.0740499496        12.2526139281         0.0000000000
        0.0000000000         0.0000000000        36.9310989380
   Al    N    C    H
  100    3    2    3
Direct
     0.000000000         0.000000000         0.406159997
     0.002151000         0.003682000         0.598344982
     0.134751007         0.068967000         0.533240020
     0.066670001         0.133330002         0.468719989
     0.200000003         0.000000000         0.406159997
     0.202406004         0.003726000         0.598203003
     0.334672004         0.068999998         0.533159018
     0.266669989         0.133330002         0.468719989
     0.400000006         0.000000000         0.406159997
     0.401829004         0.003335000         0.598203003
     0.534021020         0.068626001         0.533119023
     0.466670007         0.133330002         0.468719989
     0.600000024         0.000000000         0.406159997
     0.602223992         0.003737000         0.598325014
     0.734345019         0.068654999         0.533343017
     0.666670024         0.133330002         0.468719989
     0.800000012         0.000000000         0.406159997
     0.802093983         0.003410000         0.598574996
     0.934302986         0.068589002         0.533343971
     0.866670012         0.133330002         0.468719989
     0.000000000         0.200000003         0.406159997
     0.001773000         0.203393996         0.598339021
     0.134792000         0.268402010         0.533248007
     0.066670001         0.333330005         0.468719989
     0.200000003         0.200000003         0.406159997
     0.202214003         0.203519002         0.598937988
     0.334744006         0.268559992         0.534139991
     0.266669989         0.333330005         0.468719989
     0.400000006         0.200000003         0.406159997
     0.402539998         0.204413995         0.598625004
     0.534430981         0.269564986         0.533922970
     0.466670007         0.333330005         0.468719989
     0.600000024         0.200000003         0.406159997
     0.602006972         0.204150006         0.597881973
     0.734094977         0.268588990         0.533286989
     0.666670024         0.333330005         0.468719989
     0.800000012         0.200000003         0.406159997
     0.802024007         0.203490004         0.598267972
     0.934013009         0.268482000         0.533174992
     0.866670012         0.333330005         0.468719989
     0.000000000         0.400000006         0.406159997
     0.001801000         0.403549999         0.598062992
     0.134540007         0.468504012         0.533158004
     0.066670001         0.533330023         0.468719989
     0.200000003         0.400000006         0.406159997
     0.202228993         0.403207988         0.598164976
     0.334751010         0.468369991         0.533134997
     0.266669989         0.533330023         0.468719989
     0.400000006         0.400000006         0.406159997
     0.402491987         0.402745992         0.598304987
     0.534766018         0.466717988         0.533743978
     0.466670007         0.533330023         0.468719989
     0.600000024         0.400000006         0.406159997
     0.603568017         0.404291004         0.609354019
     0.732128024         0.466906011         0.533495009
     0.666670024         0.533330023         0.468719989
     0.800000012         0.400000006         0.406159997
     0.801346004         0.403542012         0.597725987
     0.934018016         0.468686998         0.533106029
     0.866670012         0.533330023         0.468719989
     0.000000000         0.600000024         0.406159997
     0.002059000         0.603286028         0.598537028
     0.134281993         0.668410003         0.533424020
     0.066670001         0.733330011         0.468719989
     0.200000003         0.600000024         0.406159997
     0.202088997         0.603519976         0.598430991
     0.334354013         0.668675005         0.533316016
     0.266669989         0.733330011         0.468719989
     0.400000006         0.600000024         0.406159997
     0.402087986         0.603372991         0.598128021
     0.534078002         0.667971015         0.532962978
     0.466670007         0.733330011         0.468719989
     0.600000024         0.600000024         0.406159997
     0.602011025         0.602787018         0.597464025
     0.734243989         0.668054998         0.533154011
     0.666670024         0.733330011         0.468719989
     0.800000012         0.600000024         0.406159997
     0.801663995         0.603308022         0.597362995
     0.934294999         0.668056011         0.533102989
     0.866670012         0.733330011         0.468719989
     0.000000000         0.800000012         0.406159997
     0.001726000         0.803206980         0.598169982
     0.134443998         0.868597984         0.533156991
     0.066670001         0.933329999         0.468719989
     0.200000003         0.800000012         0.406159997
     0.201941997         0.802950025         0.598471999
     0.334280998         0.868348002         0.533309996
     0.266669989         0.933329999         0.468719989
     0.400000006         0.800000012         0.406159997
     0.402029991         0.803269982         0.598405004
     0.534424007         0.868592978         0.533252001
     0.466670007         0.933329999         0.468719989
     0.600000024         0.800000012         0.406159997
     0.602154016         0.803385019         0.598333001
     0.734372020         0.868628979         0.533304989
     0.666670024         0.933329999         0.468719989
     0.800000012         0.800000012         0.406159997
     0.801863015         0.803579986         0.598098993
     0.934090972         0.868436992         0.533232987
     0.866670012         0.933329999         0.468719989
     0.508777976         0.357708007         0.685572982
     0.602436006         0.406783998         0.666018009
     0.641158998         0.434998989         0.725587010
     0.533361018         0.375364006         0.721035004
     0.680463016         0.452585995         0.691375017
     0.435930997         0.316740990         0.671872020
     0.472030014         0.344370008         0.742258012
     0.766292989         0.498919994         0.684119999
