fenzi2                               
1.0
       14.1480998993         0.0000000000         0.0000000000
       -7.0740499496        12.2526139281         0.0000000000
        0.0000000000         0.0000000000        36.9310989380
   Al    O    N    C    H
  100    1    1    3    7
Direct
     0.000000000         0.000000000         0.406159997
     0.000673000         0.002594000         0.598484993
     0.134453997         0.068930000         0.533267021
     0.066670001         0.133330002         0.468719989
     0.200000003         0.000000000         0.406159997
     0.201712996         0.003439000         0.597944975
     0.334459007         0.068806998         0.532882988
     0.266669989         0.133330002         0.468719989
     0.400000006         0.000000000         0.406159997
     0.400382996         0.002304000         0.598262012
     0.533900023         0.068581000         0.533149004
     0.466670007         0.133330002         0.468719989
     0.600000024         0.000000000         0.406159997
     0.600499988         0.002774000         0.598204970
     0.734287977         0.068559997         0.533358991
     0.666670024         0.133330002         0.468719989
     0.800000012         0.000000000         0.406159997
     0.800800025         0.002510000         0.598635018
     0.934058011         0.068441004         0.533438981
     0.866670012         0.133330002         0.468719989
     0.000000000         0.200000003         0.406159997
     0.000861000         0.202381000         0.598555028
     0.134609997         0.268409997         0.533264995
     0.066670001         0.333330005         0.468719989
     0.200000003         0.200000003         0.406159997
     0.201791003         0.202923998         0.598589003
     0.335103989         0.269057006         0.534088016
     0.266669989         0.333330005         0.468719989
     0.400000006         0.200000003         0.406159997
     0.403425992         0.204512000         0.598262012
     0.534532011         0.269688010         0.534099996
     0.466670007         0.333330005         0.468719989
     0.600000024         0.200000003         0.406159997
     0.600832999         0.203924000         0.598397970
     0.733386993         0.267865986         0.533331990
     0.666670024         0.333330005         0.468719989
     0.800000012         0.200000003         0.406159997
     0.800653994         0.202142000         0.598510981
     0.934050024         0.268263996         0.533348978
     0.866670012         0.333330005         0.468719989
     0.000000000         0.400000006         0.406159997
     0.000037000         0.402287990         0.598149002
     0.134303004         0.468578011         0.533259988
     0.066670001         0.533330023         0.468719989
     0.200000003         0.400000006         0.406159997
     0.202040002         0.402649999         0.598057985
     0.334888011         0.468448997         0.532913029
     0.266669989         0.533330023         0.468719989
     0.400000006         0.400000006         0.406159997
     0.403851002         0.402583987         0.598415971
     0.534731984         0.466921985         0.534420013
     0.466670007         0.533330023         0.468719989
     0.600000024         0.400000006         0.406159997
     0.603039980         0.402305007         0.615680993
     0.731513977         0.466645986         0.533240974
     0.666670024         0.533330023         0.468719989
     0.800000012         0.400000006         0.406159997
     0.798586011         0.401362002         0.596530020
     0.934028983         0.468324989         0.532739997
     0.866670012         0.533330023         0.468719989
     0.000000000         0.600000024         0.406159997
     0.999854028         0.602259994         0.598137021
     0.133970007         0.668488979         0.533510983
     0.066670001         0.733330011         0.468719989
     0.200000003         0.600000024         0.406159997
     0.200231001         0.602352023         0.598492980
     0.333838999         0.668438971         0.533402026
     0.266669989         0.733330011         0.468719989
     0.400000006         0.600000024         0.406159997
     0.400806010         0.602514982         0.598146021
     0.533937991         0.667828977         0.533163011
     0.466670007         0.733330011         0.468719989
     0.600000024         0.600000024         0.406159997
     0.600328982         0.599798977         0.599035025
     0.732685030         0.667235970         0.533734977
     0.666670024         0.733330011         0.468719989
     0.800000012         0.600000024         0.406159997
     0.797684014         0.599609017         0.597383022
     0.933216989         0.667885005         0.532868981
     0.866670012         0.733330011         0.468719989
     0.000000000         0.800000012         0.406159997
     0.999612987         0.801891983         0.598187029
     0.133886993         0.868279994         0.533234000
     0.066670001         0.933329999         0.468719989
     0.200000003         0.800000012         0.406159997
     0.200011998         0.801950991         0.598528981
     0.333871007         0.868318021         0.533419013
     0.266669989         0.933329999         0.468719989
     0.400000006         0.800000012         0.406159997
     0.400135994         0.802197993         0.598433971
     0.534079015         0.868381023         0.533263028
     0.466670007         0.933329999         0.468719989
     0.600000024         0.800000012         0.406159997
     0.600754023         0.801882982         0.598334014
     0.734237015         0.868255973         0.533375025
     0.666670024         0.933329999         0.468719989
     0.800000012         0.800000012         0.406159997
     0.800248981         0.802021027         0.598482013
     0.933580995         0.868223011         0.533302009
     0.866670012         0.933329999         0.468719989
     0.474509001         0.342334002         0.683324993
     0.584061980         0.387437999         0.672915995
     0.648352981         0.405690014         0.700357974
     0.767907023         0.454279989         0.694446027
     0.604821026         0.378836006         0.738166988
     0.792532980         0.479297012         0.666284025
     0.812777996         0.525960982         0.712089002
     0.793329000         0.394980997         0.702085018
     0.669874012         0.393907011         0.757396996
     0.567955971         0.428456008         0.745878994
     0.539026976         0.293271005         0.740072012
     0.435324997         0.329957008         0.659673989
