fenzi3                                
1.0
       14.1480998993         0.0000000000         0.0000000000
       -7.0740499496        12.2526139281         0.0000000000
        0.0000000000         0.0000000000        36.9310989380
   Al    N    C    H
  100    3    2    3
Direct
     0.000000000         0.000000000         0.406159997
     0.999899983         0.002158000         0.598505974
     0.133827999         0.068430997         0.533253014
     0.066670001         0.133330002         0.468719989
     0.200000003         0.000000000         0.406159997
     0.200168997         0.002349000         0.598278999
     0.334086001         0.068434998         0.533209980
     0.266669989         0.133330002         0.468719989
     0.400000006         0.000000000         0.406159997
     0.399803013         0.002094000         0.598299026
     0.533770025         0.068658002         0.533150971
     0.466670007         0.133330002         0.468719989
     0.600000024         0.000000000         0.406159997
     0.599550009         0.002383000         0.598219991
     0.733951986         0.068622999         0.533285022
     0.666670024         0.133330002         0.468719989
     0.800000012         0.000000000         0.406159997
     0.799955010         0.002273000         0.598483980
     0.933844984         0.068384998         0.533366024
     0.866670012         0.133330002         0.468719989
     0.000000000         0.200000003         0.406159997
     0.999414027         0.201954007         0.598475993
     0.133827001         0.268252999         0.533231974
     0.066670001         0.333330005         0.468719989
     0.200000003         0.200000003         0.406159997
     0.199654996         0.202094004         0.598294020
     0.333923012         0.268121004         0.533264995
     0.266669989         0.333330005         0.468719989
     0.400000006         0.200000003         0.406159997
     0.400523007         0.203039005         0.598263025
     0.534332991         0.269367993         0.533887982
     0.466670007         0.333330005         0.468719989
     0.600000024         0.200000003         0.406159997
     0.599427998         0.203517005         0.598343015
     0.733551979         0.268435001         0.533541977
     0.666670024         0.333330005         0.468719989
     0.800000012         0.200000003         0.406159997
     0.799226999         0.202160999         0.598523974
     0.933488011         0.268278986         0.533289015
     0.866670012         0.333330005         0.468719989
     0.000000000         0.400000006         0.406159997
     0.998694003         0.402143002         0.598353982
     0.133662999         0.468356997         0.533226013
     0.066670001         0.533330023         0.468719989
     0.200000003         0.400000006         0.406159997
     0.199773997         0.402052999         0.598288000
     0.333822995         0.468495995         0.533007979
     0.266669989         0.533330023         0.468719989
     0.400000006         0.400000006         0.406159997
     0.400112003         0.402123988         0.596888006
     0.534699976         0.466627985         0.533338010
     0.466670007         0.533330023         0.468719989
     0.600000024         0.400000006         0.406159997
     0.598466992         0.402895004         0.610177994
     0.731658995         0.466674000         0.533451974
     0.666670024         0.533330023         0.468719989
     0.800000012         0.400000006         0.406159997
     0.798052013         0.402402014         0.597550988
     0.933664024         0.468468994         0.533128023
     0.866670012         0.533330023         0.468719989
     0.000000000         0.600000024         0.406159997
     0.999275982         0.602092028         0.598423004
     0.133897007         0.668395996         0.533380985
     0.066670001         0.733330011         0.468719989
     0.200000003         0.600000024         0.406159997
     0.199489996         0.602060974         0.598466992
     0.333797991         0.668380976         0.533361018
     0.266669989         0.733330011         0.468719989
     0.400000006         0.600000024         0.406159997
     0.399623007         0.602150023         0.598257005
     0.533418000         0.667878985         0.532900989
     0.466670007         0.733330011         0.468719989
     0.600000024         0.600000024         0.406159997
     0.599745989         0.602090001         0.597048998
     0.733668029         0.668069005         0.533011973
     0.666670024         0.733330011         0.468719989
     0.800000012         0.600000024         0.406159997
     0.798349023         0.601727009         0.597305000
     0.933628976         0.667931020         0.533068001
     0.866670012         0.733330011         0.468719989
     0.000000000         0.800000012         0.406159997
     0.999462008         0.801936984         0.598226011
     0.133818001         0.868288994         0.533217013
     0.066670001         0.933329999         0.468719989
     0.200000003         0.800000012         0.406159997
     0.199890003         0.801935971         0.598502994
     0.333860993         0.868345976         0.533363998
     0.266669989         0.933329999         0.468719989
     0.400000006         0.800000012         0.406159997
     0.399464011         0.801759005         0.598502994
     0.533869982         0.868412018         0.533181012
     0.466670007         0.933329999         0.468719989
     0.600000024         0.800000012         0.406159997
     0.599738002         0.802062988         0.598221004
     0.733925998         0.868359029         0.533227980
     0.666670024         0.933329999         0.468719989
     0.800000012         0.800000012         0.406159997
     0.799688995         0.802358985         0.598206997
     0.933768988         0.868387997         0.533240974
     0.866670012         0.933329999         0.468719989
     0.652767003         0.428030014         0.722617984
     0.565714002         0.444146991         0.723502994
     0.601714015         0.413356006         0.666565001
     0.674363971         0.409675002         0.688795984
     0.536992013         0.434594989         0.689010978
     0.692286015         0.431185007         0.745916009
     0.739875972         0.395063013         0.680806994
     0.469195992         0.443085015         0.679235995
