fenzi1                               
1.0
       14.1480998993         0.0000000000         0.0000000000
       -7.0740499496        12.2526139281         0.0000000000
        0.0000000000         0.0000000000        36.9310989380
   Al    O    C    H
  100    4    4    6
Direct
     0.000000000         0.000000000         0.406159997
     0.999532998         0.001900000         0.598397017
     0.133865997         0.068558000         0.533143997
     0.066670001         0.133330002         0.468719989
     0.200000003         0.000000000         0.406159997
     0.199717000         0.002072000         0.598203003
     0.334033012         0.068539001         0.533124983
     0.266669989         0.133330002         0.468719989
     0.400000006         0.000000000         0.406159997
     0.399715006         0.002079000         0.598209023
     0.533742011         0.068640999         0.533142984
     0.466670007         0.133330002         0.468719989
     0.600000024         0.000000000         0.406159997
     0.599839985         0.002392000         0.598371983
     0.733852029         0.068456002         0.533338010
     0.666670024         0.133330002         0.468719989
     0.800000012         0.000000000         0.406159997
     0.799971998         0.001987000         0.598590016
     0.933637023         0.068259001         0.533338010
     0.866670012         0.133330002         0.468719989
     0.000000000         0.200000003         0.406159997
     0.999576986         0.201868996         0.598410010
     0.133742005         0.268144995         0.533156991
     0.066670001         0.333330005         0.468719989
     0.200000003         0.200000003         0.406159997
     0.199799001         0.202026993         0.598488986
     0.333747000         0.268072993         0.533571005
     0.266669989         0.333330005         0.468719989
     0.400000006         0.200000003         0.406159997
     0.399432003         0.202317998         0.598021984
     0.534132004         0.269268990         0.534075022
     0.466670007         0.333330005         0.468719989
     0.600000024         0.200000003         0.406159997
     0.599152982         0.202904999         0.598411024
     0.733439028         0.268254012         0.533448994
     0.666670024         0.333330005         0.468719989
     0.800000012         0.200000003         0.406159997
     0.799642026         0.202013001         0.598309994
     0.933602989         0.268294990         0.533228993
     0.866670012         0.333330005         0.468719989
     0.000000000         0.400000006         0.406159997
     0.999203026         0.402125001         0.598226011
     0.133635998         0.468427002         0.533221006
     0.066670001         0.533330023         0.468719989
     0.200000003         0.400000006         0.406159997
     0.199818999         0.402181000         0.598142028
     0.333831012         0.468340993         0.532804012
     0.266669989         0.533330023         0.468719989
     0.400000006         0.400000006         0.406159997
     0.399690002         0.401876986         0.596884012
     0.534421980         0.466403008         0.533596992
     0.466670007         0.533330023         0.468719989
     0.600000024         0.400000006         0.406159997
     0.598430991         0.401084006         0.610349000
     0.731508017         0.466531992         0.533609986
     0.666670024         0.533330023         0.468719989
     0.800000012         0.400000006         0.406159997
     0.798215985         0.401778013         0.598028004
     0.933520019         0.468450010         0.533155024
     0.866670012         0.533330023         0.468719989
     0.000000000         0.600000024         0.406159997
     0.999334991         0.601890028         0.598522007
     0.133683994         0.668313026         0.533425987
     0.066670001         0.733330011         0.468719989
     0.200000003         0.600000024         0.406159997
     0.199472994         0.602172971         0.598519027
     0.333709002         0.668354988         0.533326983
     0.266669989         0.733330011         0.468719989
     0.400000006         0.600000024         0.406159997
     0.399444997         0.602180004         0.598115027
     0.533644974         0.667807996         0.533006012
     0.466670007         0.733330011         0.468719989
     0.600000024         0.600000024         0.406159997
     0.598717988         0.600763977         0.597755015
     0.733397007         0.667720973         0.533320010
     0.666670024         0.733330011         0.468719989
     0.800000012         0.600000024         0.406159997
     0.797785997         0.600739002         0.597796023
     0.933371007         0.667843997         0.533164024
     0.866670012         0.733330011         0.468719989
     0.000000000         0.800000012         0.406159997
     0.998795986         0.801308990         0.598299026
     0.133726999         0.868233979         0.533241987
     0.066670001         0.933329999         0.468719989
     0.200000003         0.800000012         0.406159997
     0.199605003         0.801768005         0.598478019
     0.333788991         0.868332028         0.533342004
     0.266669989         0.933329999         0.468719989
     0.400000006         0.800000012         0.406159997
     0.399547994         0.801958978         0.598393977
     0.533949018         0.868381023         0.533285975
     0.466670007         0.933329999         0.468719989
     0.600000024         0.800000012         0.406159997
     0.599871993         0.802007973         0.598345995
     0.733905971         0.868292987         0.533379972
     0.666670024         0.933329999         0.468719989
     0.800000012         0.800000012         0.406159997
     0.799453974         0.801778972         0.598412991
     0.933511972         0.868215024         0.533257008
     0.866670012         0.933329999         0.468719989
     0.428205997         0.326193988         0.684092999
     0.828297973         0.539108992         0.779080987
     0.603321016         0.409316987         0.663920999
     0.654932022         0.482620001         0.797549009
     0.568328023         0.413908988         0.727665007
     0.690789998         0.466912001         0.733996987
     0.534696996         0.382378995         0.689065993
     0.719268024         0.495723009         0.773415983
     0.538101971         0.468968987         0.735943019
     0.522403002         0.341010004         0.744692028
     0.736513019         0.541567028         0.717729986
     0.722087026         0.413098991         0.725508988
     0.410737991         0.309814006         0.657378018
     0.840849996         0.555612028         0.805004001
